432
0
3,2,6,1321
0
3,2,7,1034
0
3,2,8,930
0
3,2,9,3025
0
3,2,4,239
0
3,2,5,4
0
3,0,0,0
179577000
3,2,6,1321
0
3,2,7,1033
0
3,2,8,929
0
3,2,9,3024
0
3,2,4,239
0
3,2,5,4
0
3,0,0,0
179652000
3,2,6,1321
0
3,2,7,1034
0
3,2,8,930
0
3,2,9,3023
0
3,2,4,239
0
3,2,5,4
0
3,0,0,0
179642000
3,2,6,1321
0
3,2,7,1034
0
3,2,8,930
0
3,2,9,3024
0
3,2,4,239
0
3,2,5,4
0
3,0,0,0
179387000
3,2,6,1321
0
3,2,7,1033
0
3,2,8,930
0
3,2,9,3025
0
3,2,4,239
0
3,2,5,4
0
3,0,0,0
179530000
3,2,6,1321
0
3,2,7,1034
0
3,2,8,929
0
3,2,9,3024
0
3,2,4,239
0
3,2,5,4
0
3,0,0,0
179520000
3,2,6,1319
0
3,2,7,1034
0
3,2,8,930
0
3,2,9,3022
0
3,2,4,239
0
3,2,5,4
0
3,0,0,0
179791000
3,2,6,1320
0
3,2,7,1033
0
3,2,8,929
0
3,2,9,3023
0
3,2,4,239
0
3,2,5,4
0
3,0,0,0
179417000
3,2,6,1320
0
3,2,7,1034
0
3,2,8,929
0
3,2,9,3022
0
3,2,4,239
0
3,2,5,4
0
3,0,0,0
163143000
2,3,57,230
0
2,1,330,1
0
2,3,53,189
0
2,3,54,349
0
2,3,48,6
0
2,3,49,5
0
2,0,0,0
11022000
2,3,49,6
0
2,0,0,0
4406000
3,2,6,1320
0
3,2,7,1034
0
3,2,8,930
0
3,2,9,3025
0
3,2,4,239
0
3,2,5,4
0
3,0,0,0
5811000
2,3,54,348
0
2,0,0,0
11071000
2,3,54,347
0
2,0,0,0
11034000
2,3,54,346
0
2,0,0,0
11119000
2,3,54,345
0
2,0,0,0
10967000
2,3,54,344
0
2,0,0,0
10984000
2,3,54,343
0
2,0,0,0
10816000
2,3,57,4294967295
0
2,1,330,0
0
2,0,0,0
107773000
3,2,6,1319
0
3,2,7,1034
0
3,2,8,929
0
3,2,9,3023
0
3,2,4,239
0
3,2,5,4
0
3,0,0,0
179600000
3,2,6,1319
0
3,2,7,1034
0
3,2,8,929
0
3,2,9,3024
0
3,2,4,239
0
3,2,5,4
0
3,0,0,0
179644000
3,2,6,1319
0
3,2,7,1034
0
3,2,8,929
0
3,2,9,3024
0
3,2,4,239
0
3,2,5,4
0
3,0,0,0
179453000
3,2,6,1320
0
3,2,7,1033
0
3,2,8,929
0
3,2,9,3024
0
3,2,4,239
0
3,2,5,4
0
3,0,0,0
179473000
3,2,6,1320
0
3,2,7,1033
0
3,2,8,929
0
3,2,9,3025
0
3,2,4,239
0
3,2,5,4
0
3,0,0,0
179561000
3,2,6,1321
0
3,2,7,1034
0
3,2,8,930
0
3,2,9,3024
0
3,2,4,239
0
3,2,5,4
0
3,0,0,0
179596000
3,2,6,1320
0
3,2,7,1033
0
3,2,8,930
0
3,2,9,3024
0
3,2,4,239
0
3,2,5,4
0
3,0,0,0
180301000
3,2,6,1321
0
3,2,7,1034
0
3,2,8,930
0
3,2,9,3026
0
3,2,4,239
0
3,2,5,4
0
3,0,0,0
178940000
3,2,6,1320
0
3,2,7,1034
0
3,2,8,929
0
3,2,9,3025
0
3,2,4,239
0
3,2,5,4
0
3,0,0,0
180008000
3,2,6,1321
0
3,2,7,1034
0
3,2,8,929
0
3,2,9,3025
0
3,2,4,239
0
3,2,5,4
0
3,0,0,0
179024000
3,2,6,1320
0
3,2,7,1034
0
3,2,8,930
0
3,2,9,3024
0
3,2,4,239
0
3,2,5,4
0
3,0,0,0
179587000
3,2,6,1320
0
3,2,7,1033
0
3,2,8,929
0
3,2,9,3024
0
3,2,4,239
0
3,2,5,4
0
3,0,0,0
179658000
3,2,6,1321
0
3,2,7,1033
0
3,2,8,929
0
3,2,9,3023
0
3,2,4,239
0
3,2,5,4
0
3,0,0,0
179747000
3,2,6,1321
0
3,2,7,1033
0
3,2,8,929
0
3,2,9,3024
0
3,2,4,239
0
3,2,5,4
0
3,0,0,0
179763000
3,2,6,1321
0
3,2,7,1034
0
3,2,8,929
0
3,2,9,3025
0
3,2,4,239
0
3,2,5,4
0
3,0,0,0
179584000
3,2,6,1321
0
3,2,7,1033
0
3,2,8,930
0
3,2,9,3024
0
3,2,4,239
0
3,2,5,4
0
3,0,0,0
179129000
3,2,6,1320
0
3,2,7,1034
0
3,2,8,929
0
3,2,9,3025
0
3,2,4,239
0
3,2,5,4
0
3,0,0,0
180007000
3,2,6,1320
0
3,2,7,1034
0
3,2,8,929
0
3,2,9,3024
0
3,2,4,239
0
3,2,5,4
0
3,0,0,0
179126000
3,2,6,1320
0
3,2,7,1033
0
3,2,8,929
0
3,2,9,3024
0
3,2,4,239
0
3,2,5,4
0
3,0,0,0
179992000
3,2,6,1320
0
3,2,7,1034
0
3,2,8,929
0
3,2,9,3024
0
3,2,4,239
0
3,2,5,4
0
3,0,0,0
179135000
3,2,6,1320
0
3,2,7,1033
0
3,2,8,930
0
3,2,9,3024
0
3,2,4,239
0
3,2,5,4
0
3,0,0,0
179521000
3,2,6,1320
0
3,2,7,1034
0
3,2,8,929
0
3,2,9,3025
0
3,2,4,239
0
3,2,5,4
0
3,0,0,0
179614000
3,2,6,1320
0
3,2,7,1034
0
3,2,8,929
0
3,2,9,3025
0
3,2,4,239
0
3,2,5,4
0
3,0,0,0
179698000
3,2,6,1321
0
3,2,7,1033
0
3,2,8,929
0
3,2,9,3025
0
3,2,4,239
0
3,2,5,4
0
3,0,0,0
179488000
3,2,6,1321
0
3,2,7,1034
0
3,2,8,929
0
3,2,9,3025
0
3,2,4,239
0
3,2,5,4
0
3,0,0,0
179630000
3,2,6,1321
0
3,2,7,1034
0
3,2,8,929
0
3,2,9,3024
0
3,2,4,239
0
3,2,5,4
0
3,0,0,0
179501000
3,2,6,1321
0
3,2,7,1034
0
3,2,8,930
0
3,2,9,3024
0
3,2,4,239
0
3,2,5,4
0
3,0,0,0
179582000
3,2,6,1321
0
3,2,7,1034
0
3,2,8,929
0
3,2,9,3024
0
3,2,4,239
0
3,2,5,4
0
3,0,0,0
179659000
3,2,6,1321
0
3,2,7,1034
0
3,2,8,930
0
3,2,9,3024
0
3,2,4,239
0
3,2,5,4
0
3,0,0,0
179378000
3,2,6,1321
0
3,2,7,1034
0
3,2,8,930
0
3,2,9,3026
0
3,2,4,239
0
3,2,5,4
0
3,0,0,0
180123000
3,2,6,1321
0
3,2,7,1034
0
3,2,8,930
0
3,2,9,3025
0
3,2,4,239
0
3,2,5,4
0
3,0,0,0
179122000
3,2,6,1321
0
3,2,7,1034
0
3,2,8,929
0
3,2,9,3026
0
3,2,4,239
0
3,2,5,4
0
3,0,0,0
179934000
3,2,6,1322
0
3,2,7,1034
0
3,2,8,930
0
3,2,9,3025
0
3,2,4,239
0
3,2,5,4
0
3,0,0,0
179174000
3,2,6,1321
0
3,2,7,1034
0
3,2,8,930
0
3,2,9,3024
0
3,2,4,239
0
3,2,5,4
0
3,0,0,0
179633000
3,2,6,1321
0
3,2,7,1034
0
3,2,8,929
0
3,2,9,3024
0
3,2,4,239
0
3,2,5,4
0
3,0,0,0
18759000
2,3,57,231
0
2,1,330,1
0
2,3,53,897
0
2,3,54,1142
0
2,3,48,5
0
2,3,49,5
0
2,0,0,0
11229000
2,3,48,6
0
2,0,0,0
10733000
2,3,54,1141
0
2,0,0,0
11319000
2,3,53,898
0
2,3,54,1140
0
2,3,48,5
0
2,0,0,0
10898000
2,3,53,899
0
2,3,54,1139
0
2,3,48,7
0
2,3,49,6
0
2,0,0,0
10457000
2,3,57,4294967295
0
2,1,330,0
0
2,0,0,0
106074000
3,2,6,1320
0
3,2,7,1034
0
3,2,8,929
0
3,2,9,3024
0
3,2,4,239
0
3,2,5,4
0
3,0,0,0
179664000
3,2,6,1319
0
3,2,7,1034
0
3,2,8,930
0
3,2,9,3023
0
3,2,4,239
0
3,2,5,4
0
3,0,0,0
179559000
3,2,6,1320
0
3,2,7,1034
0
3,2,8,930
0
3,2,9,3025
0
3,2,4,239
0
3,2,5,4
0
3,0,0,0
179653000
3,2,6,1320
0
3,2,7,1034
0
3,2,8,930
0
3,2,9,3025
0
3,2,4,239
0
3,2,5,4
0
3,0,0,0
180189000
3,2,6,1320
0
3,2,7,1034
0
3,2,8,930
0
3,2,9,3025
0
3,2,4,239
0
3,2,5,4
0
3,0,0,0
179185000
3,2,6,1320
0
3,2,7,1034
0
3,2,8,930
0
3,2,9,3025
0
3,2,4,239
0
3,2,5,4
0
3,0,0,0
179298000
3,2,6,1321
0
3,2,7,1034
0
3,2,8,930
0
3,2,9,3026
0
3,2,4,239
0
3,2,5,4
0
3,0,0,0
179432000
3,2,6,1321
0
3,2,7,1034
0
3,2,8,930
0
3,2,9,3027
0
3,2,4,239
0
3,2,5,4
0
3,0,0,0
179651000
3,2,6,1321
0
3,2,7,1034
0
3,2,8,930
0
3,2,9,3026
0
3,2,4,239
0
3,2,5,4
0
3,0,0,0
179514000
3,2,6,1321
0
3,2,7,1034
0
3,2,8,930
0
3,2,9,3026
0
3,2,4,239
0
3,2,5,4
0
3,0,0,0
